p cnf 13 49
7 -10 -11 0
1 10 -13 0
4 -6 -8 0
1 6 9 0
2 6 10 0
1 8 -10 0
2 -9 13 0
-1 3 -4 0
-3 8 -11 0
-2 3 -7 0
-6 11 -13 0
-2 -4 -13 0
1 -9 -11 0
-3 -11 -13 0
1 2 13 0
-5 7 12 0
-6 -10 11 0
2 -3 13 0
-3 8 13 0
-6 -9 -13 0
2 4 -13 0
3 -8 9 0
-3 5 -12 0
-2 -7 12 0
3 -10 13 0
6 -9 -11 0
7 -9 -13 0
-4 -6 7 0
2 4 -6 0
-6 -10 -12 0
4 -9 10 0
2 -4 -10 0
3 -5 6 0
2 3 -6 0
-7 11 -13 0
2 -8 10 0
-11 12 13 0
-1 12 -13 0
-4 5 12 0
-7 12 -13 0
-3 9 -13 0
-9 -11 12 0
-2 6 8 0
-4 -8 9 0
-6 -7 13 0
-3 9 13 0
4 5 10 0
-1 6 10 0
1 -2 -12 0
